\ Model gr4x6_variant4
\ LP format - for model browsing. Use MPS format to capture full model detail.
Minimize
  14.53 X[0] + 13.46 X[1] + 10.99 X[2] + 14.63 X[3] + 17.02 X[4] + 6.53 X[5]
   + 6.78 X[6] + 20.51 X[7] + 20.23 X[8] + 6.94 X[9] + 14.76 X[10]
   + 6.88 X[11] + 7.03 X[12] + 15.41 X[13] + 7.75 X[14] + 17.95 X[15]
   + 11.93 X[16] + 12.62 X[17] + 20.84 X[18] + 19.03 X[19] + 7.21 X[20]
   + 11.96 X[21] + 8.96 X[22] + 15.85 X[23] + 17.61 X[24] + 14.23 X[25]
   + 11.09 X[26] + 15.67 X[27] + 15.54 X[28] + 6.25 X[29] + 17.77 X[30]
   + 8.59 X[31] + 16.29 X[32] + 12.86 X[33] + 10.95 X[34] + 11.23 X[35]
   + 7.27 X[36] + 10.92 X[37] + 8.11 X[38] + 7.81 X[39] + 19.11 X[40]
   + 16.6 X[41] + 19.01 X[42] + 6.44 X[43] + 15.17 X[44] + 18.18 X[45]
   + 17.57 X[46] + 14.01 X[47] + 17.37 X[48] + 7.52 X[49] + 13.3 X[50]
   + 19.79 X[51] + 10.4 X[52] + 12.39 X[53] + 15.59 X[54] + 12.9 X[55]
   + 8.19 X[56] + 19.93 X[57] + 14.78 X[58] + 16.36 X[59] + 19.15 X[60]
   + 10.55 X[61] + 16.42 X[62] + 18.85 X[63] + 12.61 X[64] + 12.89 X[65]
   + 14.16 X[66] + 18.19 X[67] + 6.85 X[68] + 14.88 X[69] + 8.35 X[70]
   + 11.93 X[71] + 6.47 X[72] + 10.09 X[73] + 10.85 X[74] + 15.25 X[75]
   + 14.94 X[76] + 11.52 X[77] + 17.73 X[78] + 14.1 X[79] + 186.36 Y[0]
   + 335.16 Y[1] + 432.88 Y[2] + 265.53 Y[3] + 465.29 Y[4] + 208.59 Y[5]
   + 305.49 Y[6] + 169.61 Y[7] + 232.29 Y[8] + 231.01 Y[9] + 487.4 Y[10]
   + 441.84 Y[11] + 353.22 Y[12] + 328 Y[13] + 106.28 Y[14] + 243.17 Y[15]
   + 168.58 Y[16] + 342.65 Y[17] + 132.18 Y[18] + 478.71 Y[19]
   + 109.68 Y[20] + 165.13 Y[21] + 313.46 Y[22] + 318.53 Y[23]
   + 491.1 Y[24] + 330.33 Y[25] + 237.46 Y[26] + 253.96 Y[27]
   + 241.39 Y[28] + 223.67 Y[29] + 107.93 Y[30] + 453.74 Y[31]
   + 457.48 Y[32] + 124.45 Y[33] + 444.8 Y[34] + 280.12 Y[35]
   + 217.39 Y[36] + 261.05 Y[37] + 165.49 Y[38] + 179.63 Y[39]
   + 333.31 Y[40] + 170.77 Y[41] + 231.94 Y[42] + 450.21 Y[43]
   + 137.46 Y[44] + 424.19 Y[45] + 483.36 Y[46] + 429.19 Y[47]
   + 389.51 Y[48] + 461.51 Y[49] + 141.05 Y[50] + 381.36 Y[51]
   + 396.03 Y[52] + 257.98 Y[53] + 123.22 Y[54] + 498.29 Y[55]
   + 406.51 Y[56] + 365.8 Y[57] + 299.62 Y[58] + 296.12 Y[59]
   + 337.05 Y[60] + 473.07 Y[61] + 416.47 Y[62] + 195.09 Y[63]
   + 105.26 Y[64] + 257.31 Y[65] + 252.83 Y[66] + 466.09 Y[67]
   + 426.67 Y[68] + 133.61 Y[69] + 279.82 Y[70] + 475.59 Y[71]
   + 448.09 Y[72] + 428.7 Y[73] + 133.19 Y[74] + 210.96 Y[75] + 340.1 Y[76]
   + 499.97 Y[77] + 396.47 Y[78] + 151.85 Y[79]
Subject To
 A0: X[0] + X[1] + X[2] + X[3] + X[4] + X[5] + X[6] + X[7] = 1
 A1: X[8] + X[9] + X[10] + X[11] + X[12] + X[13] + X[14] + X[15] = 1
 A2: X[16] + X[17] + X[18] + X[19] + X[20] + X[21] + X[22] + X[23] = 1
 A3: X[24] + X[25] + X[26] + X[27] + X[28] + X[29] + X[30] + X[31] = 1
 A4: X[32] + X[33] + X[34] + X[35] + X[36] + X[37] + X[38] + X[39] = 1
 A5: X[40] + X[41] + X[42] + X[43] + X[44] + X[45] + X[46] + X[47] = 1
 A6: X[48] + X[49] + X[50] + X[51] + X[52] + X[53] + X[54] + X[55] = 1
 A7: X[56] + X[57] + X[58] + X[59] + X[60] + X[61] + X[62] + X[63] = 1
 A8: X[64] + X[65] + X[66] + X[67] + X[68] + X[69] + X[70] + X[71] = 1
 A9: X[72] + X[73] + X[74] + X[75] + X[76] + X[77] + X[78] + X[79] = 1
 B0: X[0] + X[8] + X[16] + X[24] + X[32] + X[40] + X[48] + X[56] + X[64]
   + X[72] = 1.25
 B1: X[1] + X[9] + X[17] + X[25] + X[33] + X[41] + X[49] + X[57] + X[65]
   + X[73] = 1.25
 B2: X[2] + X[10] + X[18] + X[26] + X[34] + X[42] + X[50] + X[58] + X[66]
   + X[74] = 1.25
 B3: X[3] + X[11] + X[19] + X[27] + X[35] + X[43] + X[51] + X[59] + X[67]
   + X[75] = 1.25
 B4: X[4] + X[12] + X[20] + X[28] + X[36] + X[44] + X[52] + X[60] + X[68]
   + X[76] = 1.25
 B5: X[5] + X[13] + X[21] + X[29] + X[37] + X[45] + X[53] + X[61] + X[69]
   + X[77] = 1.25
 B6: X[6] + X[14] + X[22] + X[30] + X[38] + X[46] + X[54] + X[62] + X[70]
   + X[78] = 1.25
 B7: X[7] + X[15] + X[23] + X[31] + X[39] + X[47] + X[55] + X[63] + X[71]
   + X[79] = 1.25
 G0: X[0] - 1e+06 Y[0] <= 0
 G1: X[1] - 1e+06 Y[1] <= 0
 G2: X[2] - 1e+06 Y[2] <= 0
 G3: X[3] - 1e+06 Y[3] <= 0
 G4: X[4] - 1e+06 Y[4] <= 0
 G5: X[5] - 1e+06 Y[5] <= 0
 G6: X[6] - 1e+06 Y[6] <= 0
 G7: X[7] - 1e+06 Y[7] <= 0
 G8: X[8] - 1e+06 Y[8] <= 0
 G9: X[9] - 1e+06 Y[9] <= 0
 G10: X[10] - 1e+06 Y[10] <= 0
 G11: X[11] - 1e+06 Y[11] <= 0
 G12: X[12] - 1e+06 Y[12] <= 0
 G13: X[13] - 1e+06 Y[13] <= 0
 G14: X[14] - 1e+06 Y[14] <= 0
 G15: X[15] - 1e+06 Y[15] <= 0
 G16: X[16] - 1e+06 Y[16] <= 0
 G17: X[17] - 1e+06 Y[17] <= 0
 G18: X[18] - 1e+06 Y[18] <= 0
 G19: X[19] - 1e+06 Y[19] <= 0
 G20: X[20] - 1e+06 Y[20] <= 0
 G21: X[21] - 1e+06 Y[21] <= 0
 G22: X[22] - 1e+06 Y[22] <= 0
 G23: X[23] - 1e+06 Y[23] <= 0
 G24: X[24] - 1e+06 Y[24] <= 0
 G25: X[25] - 1e+06 Y[25] <= 0
 G26: X[26] - 1e+06 Y[26] <= 0
 G27: X[27] - 1e+06 Y[27] <= 0
 G28: X[28] - 1e+06 Y[28] <= 0
 G29: X[29] - 1e+06 Y[29] <= 0
 G30: X[30] - 1e+06 Y[30] <= 0
 G31: X[31] - 1e+06 Y[31] <= 0
 G32: X[32] - 1e+06 Y[32] <= 0
 G33: X[33] - 1e+06 Y[33] <= 0
 G34: X[34] - 1e+06 Y[34] <= 0
 G35: X[35] - 1e+06 Y[35] <= 0
 G36: X[36] - 1e+06 Y[36] <= 0
 G37: X[37] - 1e+06 Y[37] <= 0
 G38: X[38] - 1e+06 Y[38] <= 0
 G39: X[39] - 1e+06 Y[39] <= 0
 G40: X[40] - 1e+06 Y[40] <= 0
 G41: X[41] - 1e+06 Y[41] <= 0
 G42: X[42] - 1e+06 Y[42] <= 0
 G43: X[43] - 1e+06 Y[43] <= 0
 G44: X[44] - 1e+06 Y[44] <= 0
 G45: X[45] - 1e+06 Y[45] <= 0
 G46: X[46] - 1e+06 Y[46] <= 0
 G47: X[47] - 1e+06 Y[47] <= 0
 G48: X[48] - 1e+06 Y[48] <= 0
 G49: X[49] - 1e+06 Y[49] <= 0
 G50: X[50] - 1e+06 Y[50] <= 0
 G51: X[51] - 1e+06 Y[51] <= 0
 G52: X[52] - 1e+06 Y[52] <= 0
 G53: X[53] - 1e+06 Y[53] <= 0
 G54: X[54] - 1e+06 Y[54] <= 0
 G55: X[55] - 1e+06 Y[55] <= 0
 G56: X[56] - 1e+06 Y[56] <= 0
 G57: X[57] - 1e+06 Y[57] <= 0
 G58: X[58] - 1e+06 Y[58] <= 0
 G59: X[59] - 1e+06 Y[59] <= 0
 G60: X[60] - 1e+06 Y[60] <= 0
 G61: X[61] - 1e+06 Y[61] <= 0
 G62: X[62] - 1e+06 Y[62] <= 0
 G63: X[63] - 1e+06 Y[63] <= 0
 G64: X[64] - 1e+06 Y[64] <= 0
 G65: X[65] - 1e+06 Y[65] <= 0
 G66: X[66] - 1e+06 Y[66] <= 0
 G67: X[67] - 1e+06 Y[67] <= 0
 G68: X[68] - 1e+06 Y[68] <= 0
 G69: X[69] - 1e+06 Y[69] <= 0
 G70: X[70] - 1e+06 Y[70] <= 0
 G71: X[71] - 1e+06 Y[71] <= 0
 G72: X[72] - 1e+06 Y[72] <= 0
 G73: X[73] - 1e+06 Y[73] <= 0
 G74: X[74] - 1e+06 Y[74] <= 0
 G75: X[75] - 1e+06 Y[75] <= 0
 G76: X[76] - 1e+06 Y[76] <= 0
 G77: X[77] - 1e+06 Y[77] <= 0
 G78: X[78] - 1e+06 Y[78] <= 0
 G79: X[79] - 1e+06 Y[79] <= 0
 H0: Y[0] + Y[1] + Y[2] + Y[3] + Y[4] + Y[5] + Y[6] + Y[7] >= 2
 H1: Y[8] + Y[9] + Y[10] + Y[11] + Y[12] + Y[13] + Y[14] + Y[15] >= 2
 H2: Y[16] + Y[17] + Y[18] + Y[19] + Y[20] + Y[21] + Y[22] + Y[23] >= 2
 H3: Y[24] + Y[25] + Y[26] + Y[27] + Y[28] + Y[29] + Y[30] + Y[31] >= 2
 H4: Y[32] + Y[33] + Y[34] + Y[35] + Y[36] + Y[37] + Y[38] + Y[39] >= 2
 H5: Y[40] + Y[41] + Y[42] + Y[43] + Y[44] + Y[45] + Y[46] + Y[47] >= 2
 H6: Y[48] + Y[49] + Y[50] + Y[51] + Y[52] + Y[53] + Y[54] + Y[55] >= 2
 H7: Y[56] + Y[57] + Y[58] + Y[59] + Y[60] + Y[61] + Y[62] + Y[63] >= 2
 H8: Y[64] + Y[65] + Y[66] + Y[67] + Y[68] + Y[69] + Y[70] + Y[71] >= 2
 H9: Y[72] + Y[73] + Y[74] + Y[75] + Y[76] + Y[77] + Y[78] + Y[79] >= 2
Bounds
 X[0] <= 1e+06
 X[1] <= 1e+06
 X[2] <= 1e+06
 X[3] <= 1e+06
 X[4] <= 1e+06
 X[5] <= 1e+06
 X[6] <= 1e+06
 X[7] <= 1e+06
 X[8] <= 1e+06
 X[9] <= 1e+06
 X[10] <= 1e+06
 X[11] <= 1e+06
 X[12] <= 1e+06
 X[13] <= 1e+06
 X[14] <= 1e+06
 X[15] <= 1e+06
 X[16] <= 1e+06
 X[17] <= 1e+06
 X[18] <= 1e+06
 X[19] <= 1e+06
 X[20] <= 1e+06
 X[21] <= 1e+06
 X[22] <= 1e+06
 X[23] <= 1e+06
 X[24] <= 1e+06
 X[25] <= 1e+06
 X[26] <= 1e+06
 X[27] <= 1e+06
 X[28] <= 1e+06
 X[29] <= 1e+06
 X[30] <= 1e+06
 X[31] <= 1e+06
 X[32] <= 1e+06
 X[33] <= 1e+06
 X[34] <= 1e+06
 X[35] <= 1e+06
 X[36] <= 1e+06
 X[37] <= 1e+06
 X[38] <= 1e+06
 X[39] <= 1e+06
 X[40] <= 1e+06
 X[41] <= 1e+06
 X[42] <= 1e+06
 X[43] <= 1e+06
 X[44] <= 1e+06
 X[45] <= 1e+06
 X[46] <= 1e+06
 X[47] <= 1e+06
 X[48] <= 1e+06
 X[49] <= 1e+06
 X[50] <= 1e+06
 X[51] <= 1e+06
 X[52] <= 1e+06
 X[53] <= 1e+06
 X[54] <= 1e+06
 X[55] <= 1e+06
 X[56] <= 1e+06
 X[57] <= 1e+06
 X[58] <= 1e+06
 X[59] <= 1e+06
 X[60] <= 1e+06
 X[61] <= 1e+06
 X[62] <= 1e+06
 X[63] <= 1e+06
 X[64] <= 1e+06
 X[65] <= 1e+06
 X[66] <= 1e+06
 X[67] <= 1e+06
 X[68] <= 1e+06
 X[69] <= 1e+06
 X[70] <= 1e+06
 X[71] <= 1e+06
 X[72] <= 1e+06
 X[73] <= 1e+06
 X[74] <= 1e+06
 X[75] <= 1e+06
 X[76] <= 1e+06
 X[77] <= 1e+06
 X[78] <= 1e+06
 X[79] <= 1e+06
Binaries
 Y[0] Y[1] Y[2] Y[3] Y[4] Y[5] Y[6] Y[7] Y[8] Y[9] Y[10] Y[11] Y[12] Y[13]
 Y[14] Y[15] Y[16] Y[17] Y[18] Y[19] Y[20] Y[21] Y[22] Y[23] Y[24] Y[25]
 Y[26] Y[27] Y[28] Y[29] Y[30] Y[31] Y[32] Y[33] Y[34] Y[35] Y[36] Y[37]
 Y[38] Y[39] Y[40] Y[41] Y[42] Y[43] Y[44] Y[45] Y[46] Y[47] Y[48] Y[49]
 Y[50] Y[51] Y[52] Y[53] Y[54] Y[55] Y[56] Y[57] Y[58] Y[59] Y[60] Y[61]
 Y[62] Y[63] Y[64] Y[65] Y[66] Y[67] Y[68] Y[69] Y[70] Y[71] Y[72] Y[73]
 Y[74] Y[75] Y[76] Y[77] Y[78] Y[79]
End
